RT is False
Default write of storage_offers_DA.csv just to have a file (but constraint should be inactive)
Reading model...
...model read.
creating competitive generators file...
...competitive generators recorded.
Loading data...
.. day-ahead data with real-time VRE data read.
Compiling instance...
...instance created.
Creating Offer Mitigation (model will solve as dispatch if TRUE)...
NOTE: storage offers will not be mitigated
...storage offer mitigation file created
Converting model to MPEC...
...converted
NOTE: initial MIP solve with only storage competitive to get feasible solution
Solving...

Welcome to IBM(R) ILOG(R) CPLEX(R) Interactive Optimizer 12.9.0.0
  with Simplex, Mixed Integer & Barrier Optimizers
5725-A06 5725-A29 5724-Y48 5724-Y49 5724-Y54 5724-Y55 5655-Y21
Copyright IBM Corp. 1988, 2019.  All Rights Reserved.

Type 'help' for a list of available commands.
Type 'help' followed by a command name for more
information on commands.

CPLEX> Logfile 'cplex.log' closed.
Logfile 'C:\Users\llavin\Desktop\test919\logs\tmppzxpps0t.cplex.log' open.
CPLEX> New value for parallel optimization mode: -1
CPLEX> New value for mixed integer optimality gap tolerance: 0.01
CPLEX> New value for integrality tolerance: 1e-09
CPLEX> New value for feasibility tolerance: 0.01
CPLEX> New value for deterministic time limit in ticks: 75000
CPLEX> Problem 'C:\Users\llavin\Desktop\test919\logs\tmpxj8gvp5b.pyomo.lp' read.
Read time = 0.24 sec. (14.73 ticks)
CPLEX> Problem name         : C:\Users\llavin\Desktop\test919\logs\tmpxj8gvp5b.pyomo.lp
Objective sense      : Maximize
Variables            :   53805  [Nneg: 1,  Box: 22000,  Free: 4464,
                                 Binary: 27340]
Objective nonzeros   :    9029
Linear constraints   :  123205  [Less: 41346,  Greater: 59096,  Equal: 22763]
  Nonzeros           :  291753
  RHS nonzeros       :   67491

Variables            : Min LB: -5000.000        Max UB: 1000000.       
Objective nonzeros   : Min   : 0.07500000       Max   : 2500.000       
Linear constraints   :
  Nonzeros           : Min   : 0.07500000       Max   : 1000000.       
  RHS nonzeros       : Min   : 0.07500000       Max   : 1000000.       
CPLEX> CPXPARAM_Parallel                                -1
CPXPARAM_Simplex_Tolerances_Feasibility          0.01
CPXPARAM_DetTimeLimit                            75000
CPXPARAM_MIP_Tolerances_MIPGap                   0.01
CPXPARAM_MIP_Tolerances_Integrality              1.0000000000000001e-09
Tried aggregator 3 times.
MIP Presolve eliminated 88696 rows and 19020 columns.
MIP Presolve added 3378 rows and 0 columns.
MIP Presolve modified 24826 coefficients.
Aggregator did 13002 substitutions.
Reduced MIP has 24885 rows, 21227 columns, and 70968 nonzeros.
Reduced MIP has 8397 binaries, 0 generals, 0 SOSs, and 0 indicators.
Presolve time = 0.30 sec. (173.75 ticks)
Probing fixed 408 vars, tightened 2835 bounds.
Probing time = 1.22 sec. (893.06 ticks)
Tried aggregator 2 times.
MIP Presolve eliminated 917 rows and 816 columns.
MIP Presolve modified 2213 coefficients.
Aggregator did 32 substitutions.
Reduced MIP has 23936 rows, 20379 columns, and 68222 nonzeros.
Reduced MIP has 7989 binaries, 0 generals, 0 SOSs, and 0 indicators.
Presolve time = 0.11 sec. (65.93 ticks)
Probing time = 0.05 sec. (15.74 ticks)
Clique table members: 6352.
MIP emphasis: balance optimality and feasibility.
MIP search method: dynamic search.
Parallel mode: opportunistic, using up to 32 threads.
Root relaxation solution time = 0.38 sec. (299.78 ticks)

        Nodes                                         Cuts/
   Node  Left     Objective  IInf  Best Integer    Best Bound    ItCnt     Gap

      0     0     3971.4594  1708                   3971.4594     7507         
*     0+    0                         3964.3813     3971.4594             0.18%
      0     0        cutoff           3964.3813     3964.3813     7912    0.00%
Elapsed time = 3.64 sec. (2616.13 ticks, tree = 0.01 MB, solutions = 1)

Clique cuts applied:  13
Implied bound cuts applied:  8
Flow cuts applied:  735
Mixed integer rounding cuts applied:  27
Gomory fractional cuts applied:  22

Root node processing (before b&c):
  Real time             =    3.66 sec. (2617.97 ticks)
Parallel b&c, 32 threads:
  Real time             =    0.00 sec. (0.00 ticks)
  Sync time (average)   =    0.00 sec.
  Wait time (average)   =    0.00 sec.
                          ------------
Total (root+branch&cut) =    3.66 sec. (2617.97 ticks)

Solution pool: 1 solution saved.

MIP - Integer optimal solution:  Objective =  3.9643813170e+03
Solution time =    3.67 sec.  Iterations = 7912  Nodes = 0
Deterministic time = 2618.13 ticks  (713.00 ticks/sec)

CPLEX> Incumbent solution written to file 'C:\Users\llavin\Desktop\test919\logs\tmpk8j3gb0z.cplex.sol'.
CPLEX> NOTE: no warmstart specified for MIP iteration, default behavior is true
NOTE: resolving with all competitive generators using storage-only solution to warmstart
Solving...

Welcome to IBM(R) ILOG(R) CPLEX(R) Interactive Optimizer 12.9.0.0
  with Simplex, Mixed Integer & Barrier Optimizers
5725-A06 5725-A29 5724-Y48 5724-Y49 5724-Y54 5724-Y55 5655-Y21
Copyright IBM Corp. 1988, 2019.  All Rights Reserved.

Type 'help' for a list of available commands.
Type 'help' followed by a command name for more
information on commands.

CPLEX> Logfile 'cplex.log' closed.
Logfile 'C:\Users\llavin\Desktop\test919\logs\tmpma31563m.cplex.log' open.
CPLEX> New value for parallel optimization mode: -1
CPLEX> New value for mixed integer optimality gap tolerance: 0.01
CPLEX> New value for integrality tolerance: 1e-09
CPLEX> New value for feasibility tolerance: 0.01
CPLEX> New value for deterministic time limit in ticks: 75000
CPLEX> Problem 'C:\Users\llavin\Desktop\test919\logs\tmpke2it3n_.pyomo.lp' read.
Read time = 0.23 sec. (14.75 ticks)
CPLEX> MIP start file 'C:\Users\llavin\Desktop\test919\logs\tmpkj_ycl37.cplex.mst' read.
CPLEX> Problem name         : C:\Users\llavin\Desktop\test919\logs\tmpke2it3n_.pyomo.lp
Objective sense      : Maximize
Variables            :   54525  [Nneg: 1,  Box: 22720,  Free: 4464,
                                 Binary: 27340]
Objective nonzeros   :    9725
Linear constraints   :  123205  [Less: 41346,  Greater: 59096,  Equal: 22763]
  Nonzeros           :  291753
  RHS nonzeros       :   67491

Variables            : Min LB: -5000.000        Max UB: 1000000.       
Objective nonzeros   : Min   : 0.07500000       Max   : 2500.000       
Linear constraints   :
  Nonzeros           : Min   : 0.07500000       Max   : 1000000.       
  RHS nonzeros       : Min   : 0.07500000       Max   : 1000000.       
CPLEX> CPXPARAM_Parallel                                -1
CPXPARAM_Simplex_Tolerances_Feasibility          0.01
CPXPARAM_DetTimeLimit                            75000
CPXPARAM_MIP_Tolerances_MIPGap                   0.01
CPXPARAM_MIP_Tolerances_Integrality              1.0000000000000001e-09
Warning:  No solution found from 1 MIP starts.
Retaining values of one MIP start for possible repair.
Tried aggregator 3 times.
MIP Presolve eliminated 88696 rows and 19740 columns.
MIP Presolve added 3378 rows and 0 columns.
MIP Presolve modified 24826 coefficients.
Aggregator did 13002 substitutions.
Reduced MIP has 24885 rows, 21227 columns, and 70968 nonzeros.
Reduced MIP has 8397 binaries, 0 generals, 0 SOSs, and 0 indicators.
Presolve time = 0.28 sec. (174.11 ticks)
Probing fixed 408 vars, tightened 2835 bounds.
Probing time = 1.20 sec. (893.06 ticks)
Tried aggregator 2 times.
MIP Presolve eliminated 917 rows and 816 columns.
MIP Presolve modified 2213 coefficients.
Aggregator did 32 substitutions.
Reduced MIP has 23936 rows, 20379 columns, and 68222 nonzeros.
Reduced MIP has 7989 binaries, 0 generals, 0 SOSs, and 0 indicators.
Presolve time = 0.09 sec. (65.93 ticks)
Probing time = 0.03 sec. (15.74 ticks)
Clique table members: 6352.
MIP emphasis: balance optimality and feasibility.
MIP search method: dynamic search.
Parallel mode: opportunistic, using up to 32 threads.
Root relaxation solution time = 0.45 sec. (331.60 ticks)

        Nodes                                         Cuts/
   Node  Left     Objective  IInf  Best Integer    Best Bound    ItCnt     Gap

      0     0    64959.1274  1834                  64959.1274     7487         
      0     0    64769.5164   672                   Cuts: 724     7837         
      0     0    64639.3988   543                   Cuts: 496     8058         
      0     0    64612.8628   473                   Cuts: 310     8187         
      0     0    64612.8628   418                   Cuts: 137     8247         
      0     0    64612.8628   408                    Cuts: 99     8292         
      0     0    64612.8628   391                    Cuts: 51     8314         
      0     0    64612.8628   374                    Cuts: 69     8332         
      0     0    64612.8628   365                    Cuts: 39     8340         
      0     0    64612.8628   364                    Cuts: 34     8341         
Repair heuristic found nothing.
      0    29    infeasible                           Cuts: 7     8702         
Elapsed time = 11.01 sec. (6647.87 ticks, tree = 0.02 MB, solutions = 0)
    421   124    51141.7368   333                  64463.2624     9651         
    970   330    63770.7937   335                  64274.9606    12407         
   1460   995    62466.2090   280                  64274.9606    28823         
   2123   800    57628.7232   258                  64274.9606    24524         
   2935  2045    57353.1882   209                  64274.9606    37383         
   3809  2382    45714.4771   226                  64274.9606    38821         
   4913  3821    55040.0455   250                  64274.9606    40261         
   5886  2973    53495.0173   230                  64274.9606    39595         
   7012  5612    62704.9844   270                  64274.9606    40520         
*  7887+ 1888                        57628.7232    64274.9606            11.53%
Elapsed time = 24.91 sec. (8976.59 ticks, tree = 10.55 MB, solutions = 6)
*  9492  6141      integral     0    58722.7059    64274.9606    40605    9.46%
   9665  2447        cutoff          58722.7059    59724.4682    52681    1.71%
   9680    36    59051.2305   102    58722.7059    59315.4333    52704    1.01%

Clique cuts applied:  36
Cover cuts applied:  2
Implied bound cuts applied:  98
Flow cuts applied:  655
Mixed integer rounding cuts applied:  249
Gomory fractional cuts applied:  71

Root node processing (before b&c):
  Real time             =    9.75 sec. (6637.65 ticks)
Parallel b&c, 32 threads:
  Real time             =   29.52 sec. (10385.32 ticks)
  Sync time (average)   =    2.45 sec.
  Wait time (average)   =    0.25 sec.
                          ------------
Total (root+branch&cut) =   39.26 sec. (17022.97 ticks)

Solution pool: 6 solutions saved.

MIP - Integer optimal, tolerance (0.01/1e-06):  Objective =  5.8722705884e+04
Current MIP best bound =  5.9307444288e+04 (gap = 584.738, 1.00%)
Solution time =   39.28 sec.  Iterations = 52879  Nodes = 9682 (41)
Deterministic time = 17023.12 ticks  (433.37 ticks/sec)

CPLEX> Incumbent solution written to file 'C:\Users\llavin\Desktop\test919\logs\tmpflbmyq3h.cplex.sol'.
CPLEX> Exporting results... 
